param set_len = 18;
param target_sum = 3141485143;
param values := [1] 118290246 [2] 32610388 [3] 1058309023 [4] 574960270 [5] 265740240 [6] 269915773 [7] 111723216 [8] 575934933 [9] 108604220 [10] 156566737 [11] 678299720 [12] 726539208 [13] 26769962 [14] 183602299 [15] 190330268 [16] 984632047 [17] 972446647 [18] 643846313 ;
